Maximize
  4.6757161536730845e-04 Z_142_0_0 + 0.00286400327962712 Z_142_0_1
   + 0.0135174975322538 Z_142_0_2 + 0.7440259799161673 Z_142_0_3
   + 0.1391249476565846 Z_142_0_4 + 4.7586981177810575e-04 Z_542_0_0
   + 0.00212517902906886 Z_542_0_1 + 0.00926202222830006 Z_542_0_2
   + 0.7828968289052484 Z_542_0_3 + 0.1052401000256048 Z_542_0_4
   + 7.8912214467342608e-04 Z_621_6_0 + 0.00579632157544306 Z_621_6_1
   + 0.03450913550667 Z_621_6_2 + 0.7333152247642574 Z_621_6_3
   + 0.125590196008956 Z_621_6_4 + 7.8912214467342608e-04 Z_621_2_0
   + 0.00579632157544306 Z_621_2_1 + 0.03450913550667 Z_621_2_2
   + 0.7333152247642574 Z_621_2_3 + 0.125590196008956 Z_621_2_4
   + 0.00343425615694473 Z_621_1_0 + 0.00539608865511009 Z_621_1_1
   + 0.1334563625168475 Z_621_1_2 + 0.0397905919841999 Z_621_1_3
   + 0.7179227006868978 Z_621_1_4 + 7.9441878839828586e-04 Z_621_0_0
   + 3.8192217285726348e-04 Z_621_0_1 + 0.00489121177944444 Z_621_0_2
   + 0.0106294150607555 Z_621_0_3 + 0.8833030321985443 Z_621_0_4
   + 7.8912214467342608e-04 Z_621_3_0 + 0.00579632157544306 Z_621_3_1
   + 0.03450913550667 Z_621_3_2 + 0.7333152247642574 Z_621_3_3
   + 0.125590196008956 Z_621_3_4 + 0.00931678929081091 Z_621_4_0
   + 0.2116533377162917 Z_621_4_1 + 0.00173102526887656 Z_621_4_2
   + 0.1372616161566817 Z_621_4_3 + 0.5400372315673392 Z_621_4_4
   + 0.0766269698030935 Z_621_5_0 + 0.0228358249806705 Z_621_5_1
   + 0.0203502707643968 Z_621_5_2 + 0.0233613779360212 Z_621_5_3
   + 0.7568255565158183 Z_621_5_4 + 1.9292860466520133e-04 Z_163_2_0
   + 0.00135972861465516 Z_163_2_1 + 0.0219076854074586 Z_163_2_2
   + 0.1248896794353444 Z_163_2_3 + 0.7516499779378767 Z_163_2_4
   + 0.0049903631085505 Z_163_5_0 + 0.0877812010301437 Z_163_5_1
   + 0.00216644831938258 Z_163_5_2 + 0.1872873785767465 Z_163_5_3
   + 0.6177746089651767 Z_163_5_4 + 1.9292860466520133e-04 Z_163_4_0
   + 0.00135972861465516 Z_163_4_1 + 0.0219076854074586 Z_163_4_2
   + 0.1248896794353444 Z_163_4_3 + 0.7516499779378767 Z_163_4_4
   + 0.000349488 Z_163_0_0 + 6.94806337752105e-04 Z_163_0_1
   + 0.0109861816909569 Z_163_0_2 + 0.00825911597174676 Z_163_0_3
   + 0.8797104080916575 Z_163_0_4 + 0.00753467621813986 Z_163_3_0
   + 0.0574920188224744 Z_163_3_1 + 0.00800407447427944 Z_163_3_2
   + 0.4181399364036347 Z_163_3_3 + 0.4088292940814717 Z_163_3_4
   + 0.00138389848708802 Z_163_1_0 + 0.0399631974900896 Z_163_1_1
   + 0.0096949801083218 Z_163_1_2 + 0.0746752820841541 Z_163_1_3
   + 0.7742826418303466 Z_163_1_4 + 0.00185320639096035 Z_279_1_0
   + 6.6494536528860948e-04 Z_279_1_1 + 0.567235254902129 Z_279_1_2
   + 0.0013066736846597 Z_279_1_3 + 0.3289399196569625 Z_279_1_4
   + 1.5723412247547558e-04 Z_448_0_0 + 0.00185183164594135 Z_448_0_1
   + 0.048716932596734 Z_448_0_2 + 0.8031029481303567 Z_448_0_3
   + 0.0461710535044927 Z_448_0_4 + 0.1004602104722526 Z_731_4_0
   + 0.0107659703650858 Z_731_4_1 + 0.00934075417225972 Z_731_4_2
   + 0.1349861942581643 Z_731_4_3 + 0.6444468707322376 Z_731_4_4
   + 0.00258881652202047 Z_731_2_0 + 9.6417836931168691e-04 Z_731_2_1
   + 0.0195866808637372 Z_731_2_2 + 0.7656396307261348 Z_731_2_3
   + 0.1112206935187958 Z_731_2_4 + 0.00258881652202047 Z_731_5_0
   + 9.6417836931168691e-04 Z_731_5_1 + 0.0195866808637372 Z_731_5_2
   + 0.7656396307261348 Z_731_5_3 + 0.1112206935187958 Z_731_5_4
   + 0.00343425615694473 Z_731_1_0 + 0.00539608865511009 Z_731_1_1
   + 0.1334563625168475 Z_731_1_2 + 0.0397905919841999 Z_731_1_3
   + 0.7179227006868978 Z_731_1_4 + 7.9441878839828586e-04 Z_731_0_0
   + 3.8192217285726348e-04 Z_731_0_1 + 0.00489121177944444 Z_731_0_2
   + 0.0106294150607555 Z_731_0_3 + 0.8833030321985443 Z_731_0_4
   + 0.00258881652202047 Z_731_3_0 + 9.6417836931168691e-04 Z_731_3_1
   + 0.0195866808637372 Z_731_3_2 + 0.7656396307261348 Z_731_3_3
   + 0.1112206935187958 Z_731_3_4 + 0.00388960271704003 Z_701_1_0
   + 0.00184157932786625 Z_701_1_1 + 0.7398838436037475 Z_701_1_2
   + 0.00417383448572602 Z_701_1_3 + 0.1502111398656203 Z_701_1_4
   + 0.00227972181514433 Z_421_1_0 + 0.00399036666939625 Z_421_1_1
   + 0.795197936446211 Z_421_1_2 + 0.00247395481271104 Z_421_1_3
   + 0.0960580202565374 Z_421_1_4 + 0.0446418272045696 Z_48_3_0
   + 0.0161174810430287 Z_48_3_1 + 0.0183555665434162 Z_48_3_2
   + 0.027837716400869 Z_48_3_3 + 0.7930474088081164 Z_48_3_4
   + 0.00343425615694473 Z_48_1_0 + 0.00539608865511009 Z_48_1_1
   + 0.1334563625168475 Z_48_1_2 + 0.0397905919841999 Z_48_1_3
   + 0.7179227006868978 Z_48_1_4 + 0.00470393370333193 Z_48_2_0
   + 0.00441586782227073 Z_48_2_1 + 0.0564259843677918 Z_48_2_2
   + 0.0711550902745822 Z_48_2_3 + 0.7632991238320234 Z_48_2_4
   + 0.00139313313407251 Z_48_0_0 + 3.5400253868205997e-04 Z_48_0_1
   + 0.00446140322116795 Z_48_0_2 + 0.00704779190551036 Z_48_0_3
   + 0.8867436692005672 Z_48_0_4 + 0.0446418272045696 Z_48_6_0
   + 0.0161174810430287 Z_48_6_1 + 0.0183555665434162 Z_48_6_2
   + 0.027837716400869 Z_48_6_3 + 0.7930474088081164 Z_48_6_4
   + 0.00258881652202047 Z_48_4_0 + 9.6417836931168691e-04 Z_48_4_1
   + 0.0195866808637372 Z_48_4_2 + 0.7656396307261348 Z_48_4_3
   + 0.1112206935187958 Z_48_4_4 + 0.0875205401033617 Z_48_5_0
   + 0.0162998080836652 Z_48_5_1 + 0.00782781259233087 Z_48_5_2
   + 0.0590989121022813 Z_48_5_3 + 0.7292529271183609 Z_48_5_4
   + 0.0011785635263004 Z_59_0_0 + 0.00123368245424988 Z_59_0_1
   + 0.1588968609572472 Z_59_0_2 + 0.7271306120486076 Z_59_0_3
   + 0.011560281013595 Z_59_0_4 + 4.8701337298484191e-04 Z_618_0_0
   + 0.00206780643524503 Z_618_0_1 + 0.018730073827618 Z_618_0_2
   + 0.7085729664827854 Z_618_0_3 + 0.1701421398813668 Z_618_0_4
   + 0.011413451066872 Z_618_4_0 + 0.0183151366493895 Z_618_4_1
   + 0.00432212428264134 Z_618_4_2 + 0.1294862889305543 Z_618_4_3
   + 0.7364629990705429 Z_618_4_4 + 0.00265626774370213 Z_618_2_0
   + 0.0024778040702181 Z_618_2_1 + 0.0736146415359547 Z_618_2_2
   + 0.4940124140616057 Z_618_2_3 + 0.3272388725885194 Z_618_2_4
   + 0.011413451066872 Z_618_3_0 + 0.0183151366493895 Z_618_3_1
   + 0.00432212428264134 Z_618_3_2 + 0.1294862889305543 Z_618_3_3
   + 0.7364629990705429 Z_618_3_4 + 0.011413451066872 Z_618_1_0
   + 0.0183151366493895 Z_618_1_1 + 0.00432212428264134 Z_618_1_2
   + 0.1294862889305543 Z_618_1_3 + 0.7364629990705429 Z_618_1_4
   + 3.2753958753116479e-04 Z_313_2_0 + 0.0021498435649706 Z_313_2_1
   + 0.001876610175808 Z_313_2_2 + 0.0187788533266255 Z_313_2_3
   + 0.8768671533450649 Z_313_2_4 + 0.0510327309248622 Z_313_1_0
   + 0.00751833260734271 Z_313_1_1 + 0.00238380616469871 Z_313_1_2
   + 0.0590558719573732 Z_313_1_3 + 0.780009258345723 Z_313_1_4
   + 0.00238108940875718 Z_313_0_0 + 0.00183896854091031 Z_313_0_1
   + 0.00496966079264491 Z_313_0_2 + 0.0174030431645367 Z_313_0_3
   + 0.8734072380931509 Z_313_0_4 + 0.00244779421142135 Z_313_4_0
   + 0.00149255133889042 Z_313_4_1 + 0.0723883653178317 Z_313_4_2
   + 0.1007184723412037 Z_313_4_3 + 0.7229528167906528 Z_313_4_4
   + 0.00708092044527129 Z_313_5_0 + 0.0952267048248914 Z_313_5_1
   + 0.00166473333568639 Z_313_5_2 + 0.6054411258631859 Z_313_5_3
   + 0.1905865155309652 Z_313_5_4 + 3.2753958753116479e-04 Z_313_3_0
   + 0.0021498435649706 Z_313_3_1 + 0.001876610175808 Z_313_3_2
   + 0.0187788533266255 Z_313_3_3 + 0.8768671533450649 Z_313_3_4
   + 0.00117793545466647 Z_705_0_0 + 0.00181027298026319 Z_705_0_1
   + 0.0207423329597677 Z_705_0_2 + 0.6757319540864997 Z_705_0_3
   + 0.2005375045188031 Z_705_0_4 + 0.000111596 Z_736_2_0
   + 0.0057353710831353 Z_736_2_1 + 0.5405261378807995 Z_736_2_2
   + 6.8722938543208699e-04 Z_736_2_3 + 0.3529396656877309 Z_736_2_4
   + 0.0108607490878648 Z_736_9_0 + 0.6489509911715144 Z_736_9_1
   + 0.00636179435214243 Z_736_9_2 + 0.0433542545952146 Z_736_9_3
   + 0.1904722107932638 Z_736_9_4 + 0.0236587251471475 Z_736_10_0
   + 0.00494163237301857 Z_736_10_1 + 0.010430637077336 Z_736_10_2
   + 0.0255110196323203 Z_736_10_3 + 0.8354579857701776 Z_736_10_4
   + 0.000111596 Z_736_6_0 + 0.0057353710831353 Z_736_6_1
   + 0.5405261378807995 Z_736_6_2 + 6.8722938543208699e-04 Z_736_6_3
   + 0.3529396656877309 Z_736_6_4 + 0.00471053774541466 Z_736_8_0
   + 0.00585239320364037 Z_736_8_1 + 0.0934979315054978 Z_736_8_2
   + 0.0138298285676918 Z_736_8_3 + 0.7821093089777553 Z_736_8_4
   + 0.00343425615694473 Z_736_1_0 + 0.00539608865511009 Z_736_1_1
   + 0.1334563625168475 Z_736_1_2 + 0.0397905919841999 Z_736_1_3
   + 0.7179227006868978 Z_736_1_4 + 0.00227322428903721 Z_736_0_0
   + 0.00229598668769871 Z_736_0_1 + 0.00626762062805223 Z_736_0_2
   + 0.030089116117166 Z_736_0_3 + 0.8590740522780458 Z_736_0_4
   + 0.0234703973629738 Z_736_7_0 + 0.1310598762528815 Z_736_7_1
   + 0.00255698836754508 Z_736_7_2 + 0.00380476716013508 Z_736_7_3
   + 0.7391079708564646 Z_736_7_4 + 0.00301328639651696 Z_736_4_0
   + 0.00593751424292336 Z_736_4_1 + 0.00786388114008951 Z_736_4_2
   + 0.8002777795502772 Z_736_4_3 + 0.0829075386701929 Z_736_4_4
   + 0.00301328639651696 Z_736_3_0 + 0.00593751424292336 Z_736_3_1
   + 0.00786388114008951 Z_736_3_2 + 0.8002777795502772 Z_736_3_3
   + 0.0829075386701929 Z_736_3_4 + 0.0213648913475946 Z_736_5_0
   + 0.056244353789769 Z_736_5_1 + 0.0151806146156995 Z_736_5_2
   + 0.191809659986088 Z_736_5_3 + 0.6154004802608487 Z_736_5_4
   + 0.00115104523520678 Z_30_0_0 + 0.0014565079521377 Z_30_0_1
   + 0.0182956878144036 Z_30_0_2 + 0.6884218366501625 Z_30_0_3
   + 0.1906749223480893 Z_30_0_4 + 0.000673379 Z_181_0_0
   + 0.00453767474061959 Z_181_0_1 + 0.1195029220328799 Z_181_0_2
   + 0.6747347908300905 Z_181_0_3 + 0.100551233321479 Z_181_0_4
Subject To
 constraint1_1420: Z_142_0_0 + Z_142_0_1 + Z_142_0_2 + Z_142_0_3
   + Z_142_0_4 <= 1
 constraint1_5420: Z_542_0_0 + Z_542_0_1 + Z_542_0_2 + Z_542_0_3
   + Z_542_0_4 <= 1
 constraint1_6216: Z_621_6_0 + Z_621_6_1 + Z_621_6_2 + Z_621_6_3
   + Z_621_6_4 <= 1
 constraint1_6212: Z_621_2_0 + Z_621_2_1 + Z_621_2_2 + Z_621_2_3
   + Z_621_2_4 <= 1
 constraint1_6211: Z_621_1_0 + Z_621_1_1 + Z_621_1_2 + Z_621_1_3
   + Z_621_1_4 <= 1
 constraint1_6210: Z_621_0_0 + Z_621_0_1 + Z_621_0_2 + Z_621_0_3
   + Z_621_0_4 <= 1
 constraint1_6213: Z_621_3_0 + Z_621_3_1 + Z_621_3_2 + Z_621_3_3
   + Z_621_3_4 <= 1
 constraint1_6214: Z_621_4_0 + Z_621_4_1 + Z_621_4_2 + Z_621_4_3
   + Z_621_4_4 <= 1
 constraint1_6215: Z_621_5_0 + Z_621_5_1 + Z_621_5_2 + Z_621_5_3
   + Z_621_5_4 <= 1
 constraint1_1632: Z_163_2_0 + Z_163_2_1 + Z_163_2_2 + Z_163_2_3
   + Z_163_2_4 <= 1
 constraint1_1635: Z_163_5_0 + Z_163_5_1 + Z_163_5_2 + Z_163_5_3
   + Z_163_5_4 <= 1
 constraint1_1634: Z_163_4_0 + Z_163_4_1 + Z_163_4_2 + Z_163_4_3
   + Z_163_4_4 <= 1
 constraint1_1630: Z_163_0_0 + Z_163_0_1 + Z_163_0_2 + Z_163_0_3
   + Z_163_0_4 <= 1
 constraint1_1633: Z_163_3_0 + Z_163_3_1 + Z_163_3_2 + Z_163_3_3
   + Z_163_3_4 <= 1
 constraint1_1631: Z_163_1_0 + Z_163_1_1 + Z_163_1_2 + Z_163_1_3
   + Z_163_1_4 <= 1
 constraint1_2791: Z_279_1_0 + Z_279_1_1 + Z_279_1_2 + Z_279_1_3
   + Z_279_1_4 <= 1
 constraint1_4480: Z_448_0_0 + Z_448_0_1 + Z_448_0_2 + Z_448_0_3
   + Z_448_0_4 <= 1
 constraint1_7314: Z_731_4_0 + Z_731_4_1 + Z_731_4_2 + Z_731_4_3
   + Z_731_4_4 <= 1
 constraint1_7312: Z_731_2_0 + Z_731_2_1 + Z_731_2_2 + Z_731_2_3
   + Z_731_2_4 <= 1
 constraint1_7315: Z_731_5_0 + Z_731_5_1 + Z_731_5_2 + Z_731_5_3
   + Z_731_5_4 <= 1
 constraint1_7311: Z_731_1_0 + Z_731_1_1 + Z_731_1_2 + Z_731_1_3
   + Z_731_1_4 <= 1
 constraint1_7310: Z_731_0_0 + Z_731_0_1 + Z_731_0_2 + Z_731_0_3
   + Z_731_0_4 <= 1
 constraint1_7313: Z_731_3_0 + Z_731_3_1 + Z_731_3_2 + Z_731_3_3
   + Z_731_3_4 <= 1
 constraint1_7011: Z_701_1_0 + Z_701_1_1 + Z_701_1_2 + Z_701_1_3
   + Z_701_1_4 <= 1
 constraint1_4211: Z_421_1_0 + Z_421_1_1 + Z_421_1_2 + Z_421_1_3
   + Z_421_1_4 <= 1
 constraint1_483: Z_48_3_0 + Z_48_3_1 + Z_48_3_2 + Z_48_3_3 + Z_48_3_4
   <= 1
 constraint1_481: Z_48_1_0 + Z_48_1_1 + Z_48_1_2 + Z_48_1_3 + Z_48_1_4
   <= 1
 constraint1_482: Z_48_2_0 + Z_48_2_1 + Z_48_2_2 + Z_48_2_3 + Z_48_2_4
   <= 1
 constraint1_480: Z_48_0_0 + Z_48_0_1 + Z_48_0_2 + Z_48_0_3 + Z_48_0_4
   <= 1
 constraint1_486: Z_48_6_0 + Z_48_6_1 + Z_48_6_2 + Z_48_6_3 + Z_48_6_4
   <= 1
 constraint1_484: Z_48_4_0 + Z_48_4_1 + Z_48_4_2 + Z_48_4_3 + Z_48_4_4
   <= 1
 constraint1_485: Z_48_5_0 + Z_48_5_1 + Z_48_5_2 + Z_48_5_3 + Z_48_5_4
   <= 1
 constraint1_590: Z_59_0_0 + Z_59_0_1 + Z_59_0_2 + Z_59_0_3 + Z_59_0_4
   <= 1
 constraint1_6180: Z_618_0_0 + Z_618_0_1 + Z_618_0_2 + Z_618_0_3
   + Z_618_0_4 <= 1
 constraint1_6184: Z_618_4_0 + Z_618_4_1 + Z_618_4_2 + Z_618_4_3
   + Z_618_4_4 <= 1
 constraint1_6182: Z_618_2_0 + Z_618_2_1 + Z_618_2_2 + Z_618_2_3
   + Z_618_2_4 <= 1
 constraint1_6183: Z_618_3_0 + Z_618_3_1 + Z_618_3_2 + Z_618_3_3
   + Z_618_3_4 <= 1
 constraint1_6181: Z_618_1_0 + Z_618_1_1 + Z_618_1_2 + Z_618_1_3
   + Z_618_1_4 <= 1
 constraint1_3132: Z_313_2_0 + Z_313_2_1 + Z_313_2_2 + Z_313_2_3
   + Z_313_2_4 <= 1
 constraint1_3131: Z_313_1_0 + Z_313_1_1 + Z_313_1_2 + Z_313_1_3
   + Z_313_1_4 <= 1
 constraint1_3130: Z_313_0_0 + Z_313_0_1 + Z_313_0_2 + Z_313_0_3
   + Z_313_0_4 <= 1
 constraint1_3134: Z_313_4_0 + Z_313_4_1 + Z_313_4_2 + Z_313_4_3
   + Z_313_4_4 <= 1
 constraint1_3135: Z_313_5_0 + Z_313_5_1 + Z_313_5_2 + Z_313_5_3
   + Z_313_5_4 <= 1
 constraint1_3133: Z_313_3_0 + Z_313_3_1 + Z_313_3_2 + Z_313_3_3
   + Z_313_3_4 <= 1
 constraint1_7050: Z_705_0_0 + Z_705_0_1 + Z_705_0_2 + Z_705_0_3
   + Z_705_0_4 <= 1
 constraint1_7362: Z_736_2_0 + Z_736_2_1 + Z_736_2_2 + Z_736_2_3
   + Z_736_2_4 <= 1
 constraint1_7369: Z_736_9_0 + Z_736_9_1 + Z_736_9_2 + Z_736_9_3
   + Z_736_9_4 <= 1
 constraint1_73610: Z_736_10_0 + Z_736_10_1 + Z_736_10_2 + Z_736_10_3
   + Z_736_10_4 <= 1
 constraint1_7366: Z_736_6_0 + Z_736_6_1 + Z_736_6_2 + Z_736_6_3
   + Z_736_6_4 <= 1
 constraint1_7368: Z_736_8_0 + Z_736_8_1 + Z_736_8_2 + Z_736_8_3
   + Z_736_8_4 <= 1
 constraint1_7361: Z_736_1_0 + Z_736_1_1 + Z_736_1_2 + Z_736_1_3
   + Z_736_1_4 <= 1
 constraint1_7360: Z_736_0_0 + Z_736_0_1 + Z_736_0_2 + Z_736_0_3
   + Z_736_0_4 <= 1
 constraint1_7367: Z_736_7_0 + Z_736_7_1 + Z_736_7_2 + Z_736_7_3
   + Z_736_7_4 <= 1
 constraint1_7364: Z_736_4_0 + Z_736_4_1 + Z_736_4_2 + Z_736_4_3
   + Z_736_4_4 <= 1
 constraint1_7363: Z_736_3_0 + Z_736_3_1 + Z_736_3_2 + Z_736_3_3
   + Z_736_3_4 <= 1
 constraint1_7365: Z_736_5_0 + Z_736_5_1 + Z_736_5_2 + Z_736_5_3
   + Z_736_5_4 <= 1
 constraint1_300: Z_30_0_0 + Z_30_0_1 + Z_30_0_2 + Z_30_0_3 + Z_30_0_4
   <= 1
 constraint1_1810: Z_181_0_0 + Z_181_0_1 + Z_181_0_2 + Z_181_0_3
   + Z_181_0_4 <= 1
 constraint2_1420: Z_142_0_0 <= 1
 constraint2_1421: Z_142_0_1 <= 1
 constraint2_1422: Z_142_0_2 <= 1
 constraint2_1423: Z_142_0_3 <= 1
 constraint2_6660: <= 1
 constraint2_6661: <= 1
 constraint2_6662: <= 1
 constraint2_6663: <= 1
 constraint2_5420: Z_542_0_0 <= 1
 constraint2_5421: Z_542_0_1 <= 1
 constraint2_5422: Z_542_0_2 <= 1
 constraint2_5423: Z_542_0_3 <= 1
 constraint2_2820: <= 1
 constraint2_2821: <= 1
 constraint2_2822: <= 1
 constraint2_2823: <= 1
 constraint2_6210: Z_621_6_0 + Z_621_2_0 + Z_621_1_0 + Z_621_0_0
   + Z_621_3_0 + Z_621_4_0 + Z_621_5_0 <= 1
 constraint2_6211: Z_621_6_1 + Z_621_2_1 + Z_621_1_1 + Z_621_0_1
   + Z_621_3_1 + Z_621_4_1 + Z_621_5_1 <= 1
 constraint2_6212: Z_621_6_2 + Z_621_2_2 + Z_621_1_2 + Z_621_0_2
   + Z_621_3_2 + Z_621_4_2 + Z_621_5_2 <= 1
 constraint2_6213: Z_621_6_3 + Z_621_2_3 + Z_621_1_3 + Z_621_0_3
   + Z_621_3_3 + Z_621_4_3 + Z_621_5_3 <= 1
 constraint2_1630: Z_163_2_0 + Z_163_5_0 + Z_163_4_0 + Z_163_0_0
   + Z_163_3_0 + Z_163_1_0 <= 1
 constraint2_1631: Z_163_2_1 + Z_163_5_1 + Z_163_4_1 + Z_163_0_1
   + Z_163_3_1 + Z_163_1_1 <= 1
 constraint2_1632: Z_163_2_2 + Z_163_5_2 + Z_163_4_2 + Z_163_0_2
   + Z_163_3_2 + Z_163_1_2 <= 1
 constraint2_1633: Z_163_2_3 + Z_163_5_3 + Z_163_4_3 + Z_163_0_3
   + Z_163_3_3 + Z_163_1_3 <= 1
 constraint2_2790: Z_279_1_0 <= 1
 constraint2_2791: Z_279_1_1 <= 1
 constraint2_2792: Z_279_1_2 <= 1
 constraint2_2793: Z_279_1_3 <= 1
 constraint2_4480: Z_448_0_0 <= 1
 constraint2_4481: Z_448_0_1 <= 1
 constraint2_4482: Z_448_0_2 <= 1
 constraint2_4483: Z_448_0_3 <= 1
 constraint2_4340: <= 1
 constraint2_4341: <= 1
 constraint2_4342: <= 1
 constraint2_4343: <= 1
 constraint2_3710: <= 1
 constraint2_3711: <= 1
 constraint2_3712: <= 1
 constraint2_3713: <= 1
 constraint2_7310: Z_731_4_0 + Z_731_2_0 + Z_731_5_0 + Z_731_1_0
   + Z_731_0_0 + Z_731_3_0 <= 1
 constraint2_7311: Z_731_4_1 + Z_731_2_1 + Z_731_5_1 + Z_731_1_1
   + Z_731_0_1 + Z_731_3_1 <= 1
 constraint2_7312: Z_731_4_2 + Z_731_2_2 + Z_731_5_2 + Z_731_1_2
   + Z_731_0_2 + Z_731_3_2 <= 1
 constraint2_7313: Z_731_4_3 + Z_731_2_3 + Z_731_5_3 + Z_731_1_3
   + Z_731_0_3 + Z_731_3_3 <= 1
 constraint2_7010: Z_701_1_0 <= 1
 constraint2_7011: Z_701_1_1 <= 1
 constraint2_7012: Z_701_1_2 <= 1
 constraint2_7013: Z_701_1_3 <= 1
 constraint2_4210: Z_421_1_0 <= 1
 constraint2_4211: Z_421_1_1 <= 1
 constraint2_4212: Z_421_1_2 <= 1
 constraint2_4213: Z_421_1_3 <= 1
 constraint2_480: Z_48_3_0 + Z_48_1_0 + Z_48_2_0 + Z_48_0_0 + Z_48_6_0
   + Z_48_4_0 + Z_48_5_0 <= 1
 constraint2_481: Z_48_3_1 + Z_48_1_1 + Z_48_2_1 + Z_48_0_1 + Z_48_6_1
   + Z_48_4_1 + Z_48_5_1 <= 1
 constraint2_482: Z_48_3_2 + Z_48_1_2 + Z_48_2_2 + Z_48_0_2 + Z_48_6_2
   + Z_48_4_2 + Z_48_5_2 <= 1
 constraint2_483: Z_48_3_3 + Z_48_1_3 + Z_48_2_3 + Z_48_0_3 + Z_48_6_3
   + Z_48_4_3 + Z_48_5_3 <= 1
 constraint2_590: Z_59_0_0 <= 1
 constraint2_591: Z_59_0_1 <= 1
 constraint2_592: Z_59_0_2 <= 1
 constraint2_593: Z_59_0_3 <= 1
 constraint2_6180: Z_618_0_0 + Z_618_4_0 + Z_618_2_0 + Z_618_3_0
   + Z_618_1_0 <= 1
 constraint2_6181: Z_618_0_1 + Z_618_4_1 + Z_618_2_1 + Z_618_3_1
   + Z_618_1_1 <= 1
 constraint2_6182: Z_618_0_2 + Z_618_4_2 + Z_618_2_2 + Z_618_3_2
   + Z_618_1_2 <= 1
 constraint2_6183: Z_618_0_3 + Z_618_4_3 + Z_618_2_3 + Z_618_3_3
   + Z_618_1_3 <= 1
 constraint2_3130: Z_313_2_0 + Z_313_1_0 + Z_313_0_0 + Z_313_4_0
   + Z_313_5_0 + Z_313_3_0 <= 1
 constraint2_3131: Z_313_2_1 + Z_313_1_1 + Z_313_0_1 + Z_313_4_1
   + Z_313_5_1 + Z_313_3_1 <= 1
 constraint2_3132: Z_313_2_2 + Z_313_1_2 + Z_313_0_2 + Z_313_4_2
   + Z_313_5_2 + Z_313_3_2 <= 1
 constraint2_3133: Z_313_2_3 + Z_313_1_3 + Z_313_0_3 + Z_313_4_3
   + Z_313_5_3 + Z_313_3_3 <= 1
 constraint2_7050: Z_705_0_0 <= 1
 constraint2_7051: Z_705_0_1 <= 1
 constraint2_7052: Z_705_0_2 <= 1
 constraint2_7053: Z_705_0_3 <= 1
 constraint2_7360: Z_736_2_0 + Z_736_9_0 + Z_736_10_0 + Z_736_6_0
   + Z_736_8_0 + Z_736_1_0 + Z_736_0_0 + Z_736_7_0 + Z_736_4_0 + Z_736_3_0
   + Z_736_5_0 <= 1
 constraint2_7361: Z_736_2_1 + Z_736_9_1 + Z_736_10_1 + Z_736_6_1
   + Z_736_8_1 + Z_736_1_1 + Z_736_0_1 + Z_736_7_1 + Z_736_4_1 + Z_736_3_1
   + Z_736_5_1 <= 1
 constraint2_7362: Z_736_2_2 + Z_736_9_2 + Z_736_10_2 + Z_736_6_2
   + Z_736_8_2 + Z_736_1_2 + Z_736_0_2 + Z_736_7_2 + Z_736_4_2 + Z_736_3_2
   + Z_736_5_2 <= 1
 constraint2_7363: Z_736_2_3 + Z_736_9_3 + Z_736_10_3 + Z_736_6_3
   + Z_736_8_3 + Z_736_1_3 + Z_736_0_3 + Z_736_7_3 + Z_736_4_3 + Z_736_3_3
   + Z_736_5_3 <= 1
 constraint2_300: Z_30_0_0 <= 1
 constraint2_301: Z_30_0_1 <= 1
 constraint2_302: Z_30_0_2 <= 1
 constraint2_303: Z_30_0_3 <= 1
 constraint2_7560: <= 1
 constraint2_7561: <= 1
 constraint2_7562: <= 1
 constraint2_7563: <= 1
 constraint2_1810: Z_181_0_0 <= 1
 constraint2_1811: Z_181_0_1 <= 1
 constraint2_1812: Z_181_0_2 <= 1
 constraint2_1813: Z_181_0_3 <= 1
Bounds
Binaries
 Z_142_0_0 Z_142_0_1 Z_142_0_2 Z_142_0_3 Z_142_0_4 Z_542_0_0 Z_542_0_1
 Z_542_0_2 Z_542_0_3 Z_542_0_4 Z_621_6_0 Z_621_6_1 Z_621_6_2 Z_621_6_3
 Z_621_6_4 Z_621_2_0 Z_621_2_1 Z_621_2_2 Z_621_2_3 Z_621_2_4 Z_621_1_0
 Z_621_1_1 Z_621_1_2 Z_621_1_3 Z_621_1_4 Z_621_0_0 Z_621_0_1 Z_621_0_2
 Z_621_0_3 Z_621_0_4 Z_621_3_0 Z_621_3_1 Z_621_3_2 Z_621_3_3 Z_621_3_4
 Z_621_4_0 Z_621_4_1 Z_621_4_2 Z_621_4_3 Z_621_4_4 Z_621_5_0 Z_621_5_1
 Z_621_5_2 Z_621_5_3 Z_621_5_4 Z_163_2_0 Z_163_2_1 Z_163_2_2 Z_163_2_3
 Z_163_2_4 Z_163_5_0 Z_163_5_1 Z_163_5_2 Z_163_5_3 Z_163_5_4 Z_163_4_0
 Z_163_4_1 Z_163_4_2 Z_163_4_3 Z_163_4_4 Z_163_0_0 Z_163_0_1 Z_163_0_2
 Z_163_0_3 Z_163_0_4 Z_163_3_0 Z_163_3_1 Z_163_3_2 Z_163_3_3 Z_163_3_4
 Z_163_1_0 Z_163_1_1 Z_163_1_2 Z_163_1_3 Z_163_1_4 Z_279_1_0 Z_279_1_1
 Z_279_1_2 Z_279_1_3 Z_279_1_4 Z_448_0_0 Z_448_0_1 Z_448_0_2 Z_448_0_3
 Z_448_0_4 Z_731_4_0 Z_731_4_1 Z_731_4_2 Z_731_4_3 Z_731_4_4 Z_731_2_0
 Z_731_2_1 Z_731_2_2 Z_731_2_3 Z_731_2_4 Z_731_5_0 Z_731_5_1 Z_731_5_2
 Z_731_5_3 Z_731_5_4 Z_731_1_0 Z_731_1_1 Z_731_1_2 Z_731_1_3 Z_731_1_4
 Z_731_0_0 Z_731_0_1 Z_731_0_2 Z_731_0_3 Z_731_0_4 Z_731_3_0 Z_731_3_1
 Z_731_3_2 Z_731_3_3 Z_731_3_4 Z_701_1_0 Z_701_1_1 Z_701_1_2 Z_701_1_3
 Z_701_1_4 Z_421_1_0 Z_421_1_1 Z_421_1_2 Z_421_1_3 Z_421_1_4 Z_48_3_0
 Z_48_3_1 Z_48_3_2 Z_48_3_3 Z_48_3_4 Z_48_1_0 Z_48_1_1 Z_48_1_2 Z_48_1_3
 Z_48_1_4 Z_48_2_0 Z_48_2_1 Z_48_2_2 Z_48_2_3 Z_48_2_4 Z_48_0_0 Z_48_0_1
 Z_48_0_2 Z_48_0_3 Z_48_0_4 Z_48_6_0 Z_48_6_1 Z_48_6_2 Z_48_6_3 Z_48_6_4
 Z_48_4_0 Z_48_4_1 Z_48_4_2 Z_48_4_3 Z_48_4_4 Z_48_5_0 Z_48_5_1 Z_48_5_2
 Z_48_5_3 Z_48_5_4 Z_59_0_0 Z_59_0_1 Z_59_0_2 Z_59_0_3 Z_59_0_4 Z_618_0_0
 Z_618_0_1 Z_618_0_2 Z_618_0_3 Z_618_0_4 Z_618_4_0 Z_618_4_1 Z_618_4_2
 Z_618_4_3 Z_618_4_4 Z_618_2_0 Z_618_2_1 Z_618_2_2 Z_618_2_3 Z_618_2_4
 Z_618_3_0 Z_618_3_1 Z_618_3_2 Z_618_3_3 Z_618_3_4 Z_618_1_0 Z_618_1_1
 Z_618_1_2 Z_618_1_3 Z_618_1_4 Z_313_2_0 Z_313_2_1 Z_313_2_2 Z_313_2_3
 Z_313_2_4 Z_313_1_0 Z_313_1_1 Z_313_1_2 Z_313_1_3 Z_313_1_4 Z_313_0_0
 Z_313_0_1 Z_313_0_2 Z_313_0_3 Z_313_0_4 Z_313_4_0 Z_313_4_1 Z_313_4_2
 Z_313_4_3 Z_313_4_4 Z_313_5_0 Z_313_5_1 Z_313_5_2 Z_313_5_3 Z_313_5_4
 Z_313_3_0 Z_313_3_1 Z_313_3_2 Z_313_3_3 Z_313_3_4 Z_705_0_0 Z_705_0_1
 Z_705_0_2 Z_705_0_3 Z_705_0_4 Z_736_2_0 Z_736_2_1 Z_736_2_2 Z_736_2_3
 Z_736_2_4 Z_736_9_0 Z_736_9_1 Z_736_9_2 Z_736_9_3 Z_736_9_4 Z_736_10_0
 Z_736_10_1 Z_736_10_2 Z_736_10_3 Z_736_10_4 Z_736_6_0 Z_736_6_1 Z_736_6_2
 Z_736_6_3 Z_736_6_4 Z_736_8_0 Z_736_8_1 Z_736_8_2 Z_736_8_3 Z_736_8_4
 Z_736_1_0 Z_736_1_1 Z_736_1_2 Z_736_1_3 Z_736_1_4 Z_736_0_0 Z_736_0_1
 Z_736_0_2 Z_736_0_3 Z_736_0_4 Z_736_7_0 Z_736_7_1 Z_736_7_2 Z_736_7_3
 Z_736_7_4 Z_736_4_0 Z_736_4_1 Z_736_4_2 Z_736_4_3 Z_736_4_4 Z_736_3_0
 Z_736_3_1 Z_736_3_2 Z_736_3_3 Z_736_3_4 Z_736_5_0 Z_736_5_1 Z_736_5_2
 Z_736_5_3 Z_736_5_4 Z_30_0_0 Z_30_0_1 Z_30_0_2 Z_30_0_3 Z_30_0_4 Z_181_0_0
 Z_181_0_1 Z_181_0_2 Z_181_0_3 Z_181_0_4
End
